# Solution for model 2026-01-30_12-59-08
# Objective value = 480
start_0 5
start_1 0
start_2 15
start_3 35
start_4 45
start_5 5
start_6 55
start_7 50
start_8 15
start_9 35
start_10 25
start_11 25
hold_0_1 0
hold_0_2 0
hold_0_3 0
hold_0_4 0
hold_0_5 0
hold_0_6 0
hold_0_7 0
hold_0_8 0
hold_0_9 0
hold_0_10 1
hold_0_11 0
hold_1_1 0
hold_1_2 0
hold_1_3 0
hold_1_4 0
hold_1_5 1
hold_1_6 0
hold_1_7 0
hold_1_8 0
hold_1_9 0
hold_1_10 0
hold_1_11 0
hold_2_1 0
hold_2_2 0
hold_2_3 0
hold_2_4 0
hold_2_5 0
hold_2_6 0
hold_2_7 0
hold_2_8 0
hold_2_9 0
hold_2_10 1
hold_2_11 0
hold_3_1 0
hold_3_2 0
hold_3_3 0
hold_3_4 0
hold_3_5 0
hold_3_6 0
hold_3_7 0
hold_3_8 0
hold_3_9 0
hold_3_10 1
hold_3_11 0
hold_4_1 0
hold_4_2 0
hold_4_3 0
hold_4_4 0
hold_4_5 1
hold_4_6 0
hold_4_7 0
hold_4_8 0
hold_4_9 0
hold_4_10 0
hold_4_11 0
hold_5_1 0
hold_5_2 0
hold_5_3 0
hold_5_4 0
hold_5_5 0
hold_5_6 0
hold_5_7 0
hold_5_8 0
hold_5_9 0
hold_5_10 1
hold_5_11 0
hold_6_1 0
hold_6_2 0
hold_6_3 0
hold_6_4 0
hold_6_5 1
hold_6_6 0
hold_6_7 0
hold_6_8 0
hold_6_9 0
hold_6_10 0
hold_6_11 0
hold_7_1 0
hold_7_2 0
hold_7_3 0
hold_7_4 0
hold_7_5 1
hold_7_6 0
hold_7_7 0
hold_7_8 0
hold_7_9 0
hold_7_10 0
hold_7_11 0
hold_8_1 0
hold_8_2 0
hold_8_3 0
hold_8_4 0
hold_8_5 0
hold_8_6 0
hold_8_7 0
hold_8_8 0
hold_8_9 0
hold_8_10 1
hold_8_11 0
hold_9_1 0
hold_9_2 0
hold_9_3 0
hold_9_4 0
hold_9_5 0
hold_9_6 0
hold_9_7 0
hold_9_8 0
hold_9_9 0
hold_9_10 1
hold_9_11 0
hold_10_1 0
hold_10_2 0
hold_10_3 0
hold_10_4 0
hold_10_5 0
hold_10_6 0
hold_10_7 0
hold_10_8 0
hold_10_9 0
hold_10_10 1
hold_10_11 0
hold_11_1 0
hold_11_2 0
hold_11_3 0
hold_11_4 0
hold_11_5 0
hold_11_6 0
hold_11_7 0
hold_11_8 0
hold_11_9 0
hold_11_10 1
hold_11_11 0
flow_source_nic_in_0 0
flow_nic_out_0_sink 0
flow_nic_out_0_nic_in_1 0
flow_nic_out_0_nic_in_2 0
flow_nic_out_0_nic_in_3 0
flow_nic_out_0_nic_in_4 0
flow_nic_out_0_nic_in_5 0
flow_nic_out_0_nic_in_6 0
flow_nic_out_0_nic_in_7 0
flow_nic_out_0_nic_in_8 240
flow_nic_out_0_nic_in_9 0
flow_nic_out_0_nic_in_10 0
flow_nic_out_0_nic_in_11 0
flow_nic_in_0_0 240
flow_0_nic_out_0 240
flow_source_nic_in_1 480
flow_nic_out_1_sink 0
flow_nic_out_1_nic_in_0 240
flow_nic_out_1_nic_in_2 0
flow_nic_out_1_nic_in_3 0
flow_nic_out_1_nic_in_4 0
flow_nic_out_1_nic_in_5 240
flow_nic_out_1_nic_in_6 0
flow_nic_out_1_nic_in_7 0
flow_nic_out_1_nic_in_8 0
flow_nic_out_1_nic_in_9 0
flow_nic_out_1_nic_in_10 0
flow_nic_out_1_nic_in_11 0
flow_nic_in_1_1 480
flow_1_nic_out_1 480
flow_source_nic_in_2 0
flow_nic_out_2_sink 0
flow_nic_out_2_nic_in_0 0
flow_nic_out_2_nic_in_1 0
flow_nic_out_2_nic_in_3 0
flow_nic_out_2_nic_in_4 0
flow_nic_out_2_nic_in_5 0
flow_nic_out_2_nic_in_6 0
flow_nic_out_2_nic_in_7 0
flow_nic_out_2_nic_in_8 0
flow_nic_out_2_nic_in_9 0
flow_nic_out_2_nic_in_10 0
flow_nic_out_2_nic_in_11 240
flow_nic_in_2_2 240
flow_2_nic_out_2 240
flow_source_nic_in_3 0
flow_nic_out_3_sink 0
flow_nic_out_3_nic_in_0 0
flow_nic_out_3_nic_in_1 0
flow_nic_out_3_nic_in_2 0
flow_nic_out_3_nic_in_4 240
flow_nic_out_3_nic_in_5 0
flow_nic_out_3_nic_in_6 0
flow_nic_out_3_nic_in_7 0
flow_nic_out_3_nic_in_8 0
flow_nic_out_3_nic_in_9 0
flow_nic_out_3_nic_in_10 0
flow_nic_out_3_nic_in_11 0
flow_nic_in_3_3 240
flow_3_nic_out_3 240
flow_source_nic_in_4 0
flow_nic_out_4_sink 0
flow_nic_out_4_nic_in_0 0
flow_nic_out_4_nic_in_1 0
flow_nic_out_4_nic_in_2 0
flow_nic_out_4_nic_in_3 0
flow_nic_out_4_nic_in_5 0
flow_nic_out_4_nic_in_6 0
flow_nic_out_4_nic_in_7 480
flow_nic_out_4_nic_in_8 0
flow_nic_out_4_nic_in_9 0
flow_nic_out_4_nic_in_10 0
flow_nic_out_4_nic_in_11 0
flow_nic_in_4_4 480
flow_4_nic_out_4 480
flow_source_nic_in_5 0
flow_nic_out_5_sink 0
flow_nic_out_5_nic_in_0 0
flow_nic_out_5_nic_in_1 0
flow_nic_out_5_nic_in_2 240
flow_nic_out_5_nic_in_3 0
flow_nic_out_5_nic_in_4 0
flow_nic_out_5_nic_in_6 0
flow_nic_out_5_nic_in_7 0
flow_nic_out_5_nic_in_8 0
flow_nic_out_5_nic_in_9 0
flow_nic_out_5_nic_in_10 0
flow_nic_out_5_nic_in_11 0
flow_nic_in_5_5 240
flow_5_nic_out_5 240
flow_source_nic_in_6 0
flow_nic_out_6_sink 480
flow_nic_out_6_nic_in_0 0
flow_nic_out_6_nic_in_1 0
flow_nic_out_6_nic_in_2 0
flow_nic_out_6_nic_in_3 0
flow_nic_out_6_nic_in_4 0
flow_nic_out_6_nic_in_5 0
flow_nic_out_6_nic_in_7 0
flow_nic_out_6_nic_in_8 0
flow_nic_out_6_nic_in_9 0
flow_nic_out_6_nic_in_10 0
flow_nic_out_6_nic_in_11 0
flow_nic_in_6_6 480
flow_6_nic_out_6 480
flow_source_nic_in_7 0
flow_nic_out_7_sink 0
flow_nic_out_7_nic_in_0 0
flow_nic_out_7_nic_in_1 0
flow_nic_out_7_nic_in_2 0
flow_nic_out_7_nic_in_3 0
flow_nic_out_7_nic_in_4 0
flow_nic_out_7_nic_in_5 0
flow_nic_out_7_nic_in_6 480
flow_nic_out_7_nic_in_8 0
flow_nic_out_7_nic_in_9 0
flow_nic_out_7_nic_in_10 0
flow_nic_out_7_nic_in_11 0
flow_nic_in_7_7 480
flow_7_nic_out_7 480
flow_source_nic_in_8 0
flow_nic_out_8_sink 0
flow_nic_out_8_nic_in_0 0
flow_nic_out_8_nic_in_1 0
flow_nic_out_8_nic_in_2 0
flow_nic_out_8_nic_in_3 0
flow_nic_out_8_nic_in_4 0
flow_nic_out_8_nic_in_5 0
flow_nic_out_8_nic_in_6 0
flow_nic_out_8_nic_in_7 0
flow_nic_out_8_nic_in_9 0
flow_nic_out_8_nic_in_10 240
flow_nic_out_8_nic_in_11 0
flow_nic_in_8_8 240
flow_8_nic_out_8 240
flow_source_nic_in_9 0
flow_nic_out_9_sink 0
flow_nic_out_9_nic_in_0 0
flow_nic_out_9_nic_in_1 0
flow_nic_out_9_nic_in_2 0
flow_nic_out_9_nic_in_3 0
flow_nic_out_9_nic_in_4 240
flow_nic_out_9_nic_in_5 0
flow_nic_out_9_nic_in_6 0
flow_nic_out_9_nic_in_7 0
flow_nic_out_9_nic_in_8 0
flow_nic_out_9_nic_in_10 0
flow_nic_out_9_nic_in_11 0
flow_nic_in_9_9 240
flow_9_nic_out_9 240
flow_source_nic_in_10 0
flow_nic_out_10_sink 0
flow_nic_out_10_nic_in_0 0
flow_nic_out_10_nic_in_1 0
flow_nic_out_10_nic_in_2 0
flow_nic_out_10_nic_in_3 240
flow_nic_out_10_nic_in_4 0
flow_nic_out_10_nic_in_5 0
flow_nic_out_10_nic_in_6 0
flow_nic_out_10_nic_in_7 0
flow_nic_out_10_nic_in_8 0
flow_nic_out_10_nic_in_9 0
flow_nic_out_10_nic_in_11 0
flow_nic_in_10_10 240
flow_10_nic_out_10 240
flow_source_nic_in_11 0
flow_nic_out_11_sink 0
flow_nic_out_11_nic_in_0 0
flow_nic_out_11_nic_in_1 0
flow_nic_out_11_nic_in_2 0
flow_nic_out_11_nic_in_3 0
flow_nic_out_11_nic_in_4 0
flow_nic_out_11_nic_in_5 0
flow_nic_out_11_nic_in_6 0
flow_nic_out_11_nic_in_7 0
flow_nic_out_11_nic_in_8 0
flow_nic_out_11_nic_in_9 240
flow_nic_out_11_nic_in_10 0
flow_nic_in_11_11 240
flow_11_nic_out_11 240
switch_source_nic_in_0 0
switch_nic_out_0_sink 0
switch_nic_out_0_nic_in_1 0
switch_nic_out_0_nic_in_2 0
switch_nic_out_0_nic_in_3 0
switch_nic_out_0_nic_in_4 0
switch_nic_out_0_nic_in_5 0
switch_nic_out_0_nic_in_6 0
switch_nic_out_0_nic_in_7 0
switch_nic_out_0_nic_in_8 1
switch_nic_out_0_nic_in_9 0
switch_nic_out_0_nic_in_10 0
switch_nic_out_0_nic_in_11 0
switch_nic_in_0_0 1
switch_0_nic_out_0 1
switch_source_nic_in_1 1
switch_nic_out_1_sink 0
switch_nic_out_1_nic_in_0 1
switch_nic_out_1_nic_in_2 0
switch_nic_out_1_nic_in_3 0
switch_nic_out_1_nic_in_4 0
switch_nic_out_1_nic_in_5 1
switch_nic_out_1_nic_in_6 0
switch_nic_out_1_nic_in_7 0
switch_nic_out_1_nic_in_8 0
switch_nic_out_1_nic_in_9 0
switch_nic_out_1_nic_in_10 0
switch_nic_out_1_nic_in_11 0
switch_nic_in_1_1 1
switch_1_nic_out_1 1
switch_source_nic_in_2 0
switch_nic_out_2_sink 0
switch_nic_out_2_nic_in_0 0
switch_nic_out_2_nic_in_1 0
switch_nic_out_2_nic_in_3 0
switch_nic_out_2_nic_in_4 0
switch_nic_out_2_nic_in_5 0
switch_nic_out_2_nic_in_6 0
switch_nic_out_2_nic_in_7 0
switch_nic_out_2_nic_in_8 0
switch_nic_out_2_nic_in_9 0
switch_nic_out_2_nic_in_10 0
switch_nic_out_2_nic_in_11 1
switch_nic_in_2_2 1
switch_2_nic_out_2 1
switch_source_nic_in_3 0
switch_nic_out_3_sink 0
switch_nic_out_3_nic_in_0 0
switch_nic_out_3_nic_in_1 0
switch_nic_out_3_nic_in_2 0
switch_nic_out_3_nic_in_4 1
switch_nic_out_3_nic_in_5 0
switch_nic_out_3_nic_in_6 0
switch_nic_out_3_nic_in_7 0
switch_nic_out_3_nic_in_8 0
switch_nic_out_3_nic_in_9 0
switch_nic_out_3_nic_in_10 0
switch_nic_out_3_nic_in_11 0
switch_nic_in_3_3 1
switch_3_nic_out_3 1
switch_source_nic_in_4 0
switch_nic_out_4_sink 0
switch_nic_out_4_nic_in_0 0
switch_nic_out_4_nic_in_1 0
switch_nic_out_4_nic_in_2 0
switch_nic_out_4_nic_in_3 0
switch_nic_out_4_nic_in_5 0
switch_nic_out_4_nic_in_6 0
switch_nic_out_4_nic_in_7 1
switch_nic_out_4_nic_in_8 0
switch_nic_out_4_nic_in_9 0
switch_nic_out_4_nic_in_10 0
switch_nic_out_4_nic_in_11 0
switch_nic_in_4_4 1
switch_4_nic_out_4 1
switch_source_nic_in_5 0
switch_nic_out_5_sink 0
switch_nic_out_5_nic_in_0 0
switch_nic_out_5_nic_in_1 0
switch_nic_out_5_nic_in_2 1
switch_nic_out_5_nic_in_3 0
switch_nic_out_5_nic_in_4 0
switch_nic_out_5_nic_in_6 0
switch_nic_out_5_nic_in_7 0
switch_nic_out_5_nic_in_8 0
switch_nic_out_5_nic_in_9 0
switch_nic_out_5_nic_in_10 0
switch_nic_out_5_nic_in_11 0
switch_nic_in_5_5 1
switch_5_nic_out_5 1
switch_source_nic_in_6 0
switch_nic_out_6_sink 1
switch_nic_out_6_nic_in_0 0
switch_nic_out_6_nic_in_1 0
switch_nic_out_6_nic_in_2 0
switch_nic_out_6_nic_in_3 0
switch_nic_out_6_nic_in_4 0
switch_nic_out_6_nic_in_5 0
switch_nic_out_6_nic_in_7 0
switch_nic_out_6_nic_in_8 0
switch_nic_out_6_nic_in_9 0
switch_nic_out_6_nic_in_10 0
switch_nic_out_6_nic_in_11 0
switch_nic_in_6_6 1
switch_6_nic_out_6 1
switch_source_nic_in_7 0
switch_nic_out_7_sink 0
switch_nic_out_7_nic_in_0 0
switch_nic_out_7_nic_in_1 0
switch_nic_out_7_nic_in_2 0
switch_nic_out_7_nic_in_3 0
switch_nic_out_7_nic_in_4 0
switch_nic_out_7_nic_in_5 0
switch_nic_out_7_nic_in_6 1
switch_nic_out_7_nic_in_8 0
switch_nic_out_7_nic_in_9 0
switch_nic_out_7_nic_in_10 0
switch_nic_out_7_nic_in_11 0
switch_nic_in_7_7 1
switch_7_nic_out_7 1
switch_source_nic_in_8 0
switch_nic_out_8_sink 0
switch_nic_out_8_nic_in_0 0
switch_nic_out_8_nic_in_1 0
switch_nic_out_8_nic_in_2 0
switch_nic_out_8_nic_in_3 0
switch_nic_out_8_nic_in_4 0
switch_nic_out_8_nic_in_5 0
switch_nic_out_8_nic_in_6 0
switch_nic_out_8_nic_in_7 0
switch_nic_out_8_nic_in_9 0
switch_nic_out_8_nic_in_10 1
switch_nic_out_8_nic_in_11 0
switch_nic_in_8_8 1
switch_8_nic_out_8 1
switch_source_nic_in_9 0
switch_nic_out_9_sink 0
switch_nic_out_9_nic_in_0 0
switch_nic_out_9_nic_in_1 0
switch_nic_out_9_nic_in_2 0
switch_nic_out_9_nic_in_3 0
switch_nic_out_9_nic_in_4 1
switch_nic_out_9_nic_in_5 0
switch_nic_out_9_nic_in_6 0
switch_nic_out_9_nic_in_7 0
switch_nic_out_9_nic_in_8 0
switch_nic_out_9_nic_in_10 0
switch_nic_out_9_nic_in_11 0
switch_nic_in_9_9 1
switch_9_nic_out_9 1
switch_source_nic_in_10 0
switch_nic_out_10_sink 0
switch_nic_out_10_nic_in_0 0
switch_nic_out_10_nic_in_1 0
switch_nic_out_10_nic_in_2 0
switch_nic_out_10_nic_in_3 1
switch_nic_out_10_nic_in_4 0
switch_nic_out_10_nic_in_5 0
switch_nic_out_10_nic_in_6 0
switch_nic_out_10_nic_in_7 0
switch_nic_out_10_nic_in_8 0
switch_nic_out_10_nic_in_9 0
switch_nic_out_10_nic_in_11 0
switch_nic_in_10_10 1
switch_10_nic_out_10 1
switch_source_nic_in_11 0
switch_nic_out_11_sink 0
switch_nic_out_11_nic_in_0 0
switch_nic_out_11_nic_in_1 0
switch_nic_out_11_nic_in_2 0
switch_nic_out_11_nic_in_3 0
switch_nic_out_11_nic_in_4 0
switch_nic_out_11_nic_in_5 0
switch_nic_out_11_nic_in_6 0
switch_nic_out_11_nic_in_7 0
switch_nic_out_11_nic_in_8 0
switch_nic_out_11_nic_in_9 1
switch_nic_out_11_nic_in_10 0
switch_nic_in_11_11 1
switch_11_nic_out_11 1
group_tp_active_0 0
group_tp_active_1 0
group_tp_active_2 0
group_tp_active_3 0
group_tp_active_4 0
group_tp_active_5 0
group_tp_active_6 0
group_tp_active_7 0
group_tp_active_8 0
group_tp_active_9 0
group_tp_active_10 0
group_tp_active_11 0
is_start_zero_0_for_source_nic_in_0 0
is_end_complete_0 0
pair_ok_0_1_for_nic_out_0_nic_in_1 0
pair_ok_0_2_for_nic_out_0_nic_in_2 0
pair_ok_0_3_for_nic_out_0_nic_in_3 0
pair_ok_0_4_for_nic_out_0_nic_in_4 0
pair_ok_0_5_for_nic_out_0_nic_in_5 0
pair_ok_0_6_for_nic_out_0_nic_in_6 0
pair_ok_0_7_for_nic_out_0_nic_in_7 0
pair_ok_0_8_for_nic_out_0_nic_in_8 1
pair_ok_0_9_for_nic_out_0_nic_in_9 0
pair_ok_0_10_for_nic_out_0_nic_in_10 0
pair_ok_0_11_for_nic_out_0_nic_in_11 0
is_start_zero_1_for_source_nic_in_1 1
is_end_complete_1 0
pair_ok_1_0_for_nic_out_1_nic_in_0 1
pair_ok_1_2_for_nic_out_1_nic_in_2 0
pair_ok_1_3_for_nic_out_1_nic_in_3 0
pair_ok_1_4_for_nic_out_1_nic_in_4 0
pair_ok_1_5_for_nic_out_1_nic_in_5 1
pair_ok_1_6_for_nic_out_1_nic_in_6 0
pair_ok_1_7_for_nic_out_1_nic_in_7 0
pair_ok_1_8_for_nic_out_1_nic_in_8 0
pair_ok_1_9_for_nic_out_1_nic_in_9 0
pair_ok_1_10_for_nic_out_1_nic_in_10 0
pair_ok_1_11_for_nic_out_1_nic_in_11 0
is_start_zero_2_for_source_nic_in_2 0
is_end_complete_2 0
pair_ok_2_0_for_nic_out_2_nic_in_0 0
pair_ok_2_1_for_nic_out_2_nic_in_1 0
pair_ok_2_3_for_nic_out_2_nic_in_3 0
pair_ok_2_4_for_nic_out_2_nic_in_4 0
pair_ok_2_5_for_nic_out_2_nic_in_5 0
pair_ok_2_6_for_nic_out_2_nic_in_6 0
pair_ok_2_7_for_nic_out_2_nic_in_7 0
pair_ok_2_8_for_nic_out_2_nic_in_8 0
pair_ok_2_9_for_nic_out_2_nic_in_9 0
pair_ok_2_10_for_nic_out_2_nic_in_10 0
pair_ok_2_11_for_nic_out_2_nic_in_11 1
is_start_zero_3_for_source_nic_in_3 0
is_end_complete_3 0
pair_ok_3_0_for_nic_out_3_nic_in_0 0
pair_ok_3_1_for_nic_out_3_nic_in_1 0
pair_ok_3_2_for_nic_out_3_nic_in_2 0
pair_ok_3_4_for_nic_out_3_nic_in_4 1
pair_ok_3_5_for_nic_out_3_nic_in_5 0
pair_ok_3_6_for_nic_out_3_nic_in_6 0
pair_ok_3_7_for_nic_out_3_nic_in_7 0
pair_ok_3_8_for_nic_out_3_nic_in_8 0
pair_ok_3_9_for_nic_out_3_nic_in_9 0
pair_ok_3_10_for_nic_out_3_nic_in_10 0
pair_ok_3_11_for_nic_out_3_nic_in_11 0
is_start_zero_4_for_source_nic_in_4 0
is_end_complete_4 0
pair_ok_4_0_for_nic_out_4_nic_in_0 0
pair_ok_4_1_for_nic_out_4_nic_in_1 0
pair_ok_4_2_for_nic_out_4_nic_in_2 0
pair_ok_4_3_for_nic_out_4_nic_in_3 0
pair_ok_4_5_for_nic_out_4_nic_in_5 0
pair_ok_4_6_for_nic_out_4_nic_in_6 0
pair_ok_4_7_for_nic_out_4_nic_in_7 1
pair_ok_4_8_for_nic_out_4_nic_in_8 0
pair_ok_4_9_for_nic_out_4_nic_in_9 0
pair_ok_4_10_for_nic_out_4_nic_in_10 0
pair_ok_4_11_for_nic_out_4_nic_in_11 0
is_start_zero_5_for_source_nic_in_5 0
is_end_complete_5 0
pair_ok_5_0_for_nic_out_5_nic_in_0 0
pair_ok_5_1_for_nic_out_5_nic_in_1 0
pair_ok_5_2_for_nic_out_5_nic_in_2 1
pair_ok_5_3_for_nic_out_5_nic_in_3 0
pair_ok_5_4_for_nic_out_5_nic_in_4 0
pair_ok_5_6_for_nic_out_5_nic_in_6 0
pair_ok_5_7_for_nic_out_5_nic_in_7 0
pair_ok_5_8_for_nic_out_5_nic_in_8 0
pair_ok_5_9_for_nic_out_5_nic_in_9 0
pair_ok_5_10_for_nic_out_5_nic_in_10 0
pair_ok_5_11_for_nic_out_5_nic_in_11 0
is_start_zero_6_for_source_nic_in_6 0
is_end_complete_6 1
pair_ok_6_0_for_nic_out_6_nic_in_0 0
pair_ok_6_1_for_nic_out_6_nic_in_1 0
pair_ok_6_2_for_nic_out_6_nic_in_2 0
pair_ok_6_3_for_nic_out_6_nic_in_3 0
pair_ok_6_4_for_nic_out_6_nic_in_4 0
pair_ok_6_5_for_nic_out_6_nic_in_5 0
pair_ok_6_7_for_nic_out_6_nic_in_7 0
pair_ok_6_8_for_nic_out_6_nic_in_8 0
pair_ok_6_9_for_nic_out_6_nic_in_9 0
pair_ok_6_10_for_nic_out_6_nic_in_10 0
pair_ok_6_11_for_nic_out_6_nic_in_11 0
is_start_zero_7_for_source_nic_in_7 0
is_end_complete_7 0
pair_ok_7_0_for_nic_out_7_nic_in_0 0
pair_ok_7_1_for_nic_out_7_nic_in_1 0
pair_ok_7_2_for_nic_out_7_nic_in_2 0
pair_ok_7_3_for_nic_out_7_nic_in_3 0
pair_ok_7_4_for_nic_out_7_nic_in_4 0
pair_ok_7_5_for_nic_out_7_nic_in_5 0
pair_ok_7_6_for_nic_out_7_nic_in_6 1
pair_ok_7_8_for_nic_out_7_nic_in_8 0
pair_ok_7_9_for_nic_out_7_nic_in_9 0
pair_ok_7_10_for_nic_out_7_nic_in_10 0
pair_ok_7_11_for_nic_out_7_nic_in_11 0
is_start_zero_8_for_source_nic_in_8 0
is_end_complete_8 0
pair_ok_8_0_for_nic_out_8_nic_in_0 0
pair_ok_8_1_for_nic_out_8_nic_in_1 0
pair_ok_8_2_for_nic_out_8_nic_in_2 0
pair_ok_8_3_for_nic_out_8_nic_in_3 0
pair_ok_8_4_for_nic_out_8_nic_in_4 0
pair_ok_8_5_for_nic_out_8_nic_in_5 0
pair_ok_8_6_for_nic_out_8_nic_in_6 0
pair_ok_8_7_for_nic_out_8_nic_in_7 0
pair_ok_8_9_for_nic_out_8_nic_in_9 0
pair_ok_8_10_for_nic_out_8_nic_in_10 1
pair_ok_8_11_for_nic_out_8_nic_in_11 0
is_start_zero_9_for_source_nic_in_9 0
is_end_complete_9 0
pair_ok_9_0_for_nic_out_9_nic_in_0 0
pair_ok_9_1_for_nic_out_9_nic_in_1 0
pair_ok_9_2_for_nic_out_9_nic_in_2 0
pair_ok_9_3_for_nic_out_9_nic_in_3 0
pair_ok_9_4_for_nic_out_9_nic_in_4 1
pair_ok_9_5_for_nic_out_9_nic_in_5 0
pair_ok_9_6_for_nic_out_9_nic_in_6 0
pair_ok_9_7_for_nic_out_9_nic_in_7 0
pair_ok_9_8_for_nic_out_9_nic_in_8 0
pair_ok_9_10_for_nic_out_9_nic_in_10 0
pair_ok_9_11_for_nic_out_9_nic_in_11 0
is_start_zero_10_for_source_nic_in_10 0
is_end_complete_10 0
pair_ok_10_0_for_nic_out_10_nic_in_0 0
pair_ok_10_1_for_nic_out_10_nic_in_1 0
pair_ok_10_2_for_nic_out_10_nic_in_2 0
pair_ok_10_3_for_nic_out_10_nic_in_3 1
pair_ok_10_4_for_nic_out_10_nic_in_4 0
pair_ok_10_5_for_nic_out_10_nic_in_5 0
pair_ok_10_6_for_nic_out_10_nic_in_6 0
pair_ok_10_7_for_nic_out_10_nic_in_7 0
pair_ok_10_8_for_nic_out_10_nic_in_8 0
pair_ok_10_9_for_nic_out_10_nic_in_9 0
pair_ok_10_11_for_nic_out_10_nic_in_11 0
is_start_zero_11_for_source_nic_in_11 0
is_end_complete_11 0
pair_ok_11_0_for_nic_out_11_nic_in_0 0
pair_ok_11_1_for_nic_out_11_nic_in_1 0
pair_ok_11_2_for_nic_out_11_nic_in_2 0
pair_ok_11_3_for_nic_out_11_nic_in_3 0
pair_ok_11_4_for_nic_out_11_nic_in_4 0
pair_ok_11_5_for_nic_out_11_nic_in_5 0
pair_ok_11_6_for_nic_out_11_nic_in_6 0
pair_ok_11_7_for_nic_out_11_nic_in_7 0
pair_ok_11_8_for_nic_out_11_nic_in_8 0
pair_ok_11_9_for_nic_out_11_nic_in_9 1
pair_ok_11_10_for_nic_out_11_nic_in_10 0
